*SENSE:Minimize
NAME          MODEL
ROWS
 N  OBJ
 G  C0000000
 G  C0000001
 G  C0000002
 G  C0000003
 G  C0000004
 G  C0000005
 G  C0000006
 G  C0000007
 G  C0000008
 G  C0000009
 G  C0000010
 G  C0000011
 G  C0000012
COLUMNS
    X0000000  C0000000   1.172000000000e+02
    X0000000  OBJ        1.172000000000e+02
    X0000001  C0000001   8.765000000000e+01
    X0000001  OBJ        8.765000000000e+01
    X0000002  C0000002   1.056000000000e+02
    X0000002  OBJ        1.056000000000e+02
    X0000003  C0000003   1.242900000000e+02
    X0000003  OBJ        1.242900000000e+02
    X0000004  C0000004   1.132000000000e+02
    X0000004  OBJ        1.132000000000e+02
    X0000005  C0000005   8.135000000000e+01
    X0000005  OBJ        8.135000000000e+01
    X0000006  C0000006   9.318000000000e+01
    X0000006  OBJ        9.318000000000e+01
    X0000007  C0000007   8.600000000000e+01
    X0000007  OBJ        8.600000000000e+01
    X0000008  C0000008   1.150000000000e+02
    X0000008  OBJ        1.150000000000e+02
    X0000009  C0000009   1.044600000000e+02
    X0000009  OBJ        1.044600000000e+02
    X0000010  C0000010   1.040600000000e+02
    X0000010  OBJ        1.040600000000e+02
    X0000011  C0000011   1.099000000000e+02
    X0000011  OBJ        1.099000000000e+02
    X0000012  C0000012   1.116900000000e+02
    X0000012  OBJ        1.116900000000e+02
RHS
    RHS       C0000000   1.406461425559e-01
    RHS       C0000001   1.812720659334e-01
    RHS       C0000002   7.884018126334e-02
    RHS       C0000003   7.627078928361e-03
    RHS       C0000004   4.325175381500e-02
    RHS       C0000005   9.579640453075e-02
    RHS       C0000006   5.146594207970e-02
    RHS       C0000007   1.039045815596e-01
    RHS       C0000008   1.564860964292e-02
    RHS       C0000009   3.515824533638e-03
    RHS       C0000010   5.302320645013e-02
    RHS       C0000011   4.940788252913e-02
    RHS       C0000012   1.756003261781e-01
BOUNDS
ENDATA
